(set-logic QF_LRA)
(declare-fun X0 () Real )
(declare-fun Y0 () Real )
(declare-fun X1 () Real )
(declare-fun Y1 () Real )
(declare-fun X2 () Real )
(declare-fun Y2 () Real )
(declare-fun X3 () Real )
(declare-fun Y3 () Real )
(declare-fun X4 () Real )
(declare-fun Y4 () Real )
(declare-fun X5 () Real )
(declare-fun Y5 () Real )
(declare-fun X6 () Real )
(declare-fun Y6 () Real )
(declare-fun X7 () Real )
(declare-fun Y7 () Real )
(declare-fun X8 () Real )
(declare-fun Y8 () Real )
(declare-fun X9 () Real )
(declare-fun Y9 () Real )
(declare-fun X10 () Real )
(declare-fun Y10 () Real )
(declare-fun X11 () Real )
(declare-fun Y11 () Real )
(declare-fun X12 () Real )
(declare-fun Y12 () Real )
(declare-fun X13 () Real )
(declare-fun Y13 () Real )
(declare-fun X14 () Real )
(declare-fun Y14 () Real )
(declare-fun Z () Real )
(assert ( and  
( or ( <= ( + X0 35 ) X1 )  ( <= ( + X1 58 ) X0 )  ( <= ( + Y0 59 ) Y1 )  ( <= ( + Y1 17 ) Y0 )  )
( or ( <= ( + X0 35 ) X2 )  ( <= ( + X2 82 ) X0 )  ( <= ( + Y0 59 ) Y2 )  ( <= ( + Y2 57 ) Y0 )  )
( or ( <= ( + X0 35 ) X3 )  ( <= ( + X3 77 ) X0 )  ( <= ( + Y0 59 ) Y3 )  ( <= ( + Y3 90 ) Y0 )  )
( or ( <= ( + X0 35 ) X4 )  ( <= ( + X4 38 ) X0 )  ( <= ( + Y0 59 ) Y4 )  ( <= ( + Y4 52 ) Y0 )  )
( or ( <= ( + X0 35 ) X5 )  ( <= ( + X5 81 ) X0 )  ( <= ( + Y0 59 ) Y5 )  ( <= ( + Y5 67 ) Y0 )  )
( or ( <= ( + X0 35 ) X6 )  ( <= ( + X6 89 ) X0 )  ( <= ( + Y0 59 ) Y6 )  ( <= ( + Y6 44 ) Y0 )  )
( or ( <= ( + X0 35 ) X7 )  ( <= ( + X7 39 ) X0 )  ( <= ( + Y0 59 ) Y7 )  ( <= ( + Y7 74 ) Y0 )  )
( or ( <= ( + X0 35 ) X8 )  ( <= ( + X8 33 ) X0 )  ( <= ( + Y0 59 ) Y8 )  ( <= ( + Y8 23 ) Y0 )  )
( or ( <= ( + X0 35 ) X9 )  ( <= ( + X9 94 ) X0 )  ( <= ( + Y0 59 ) Y9 )  ( <= ( + Y9 52 ) Y0 )  )
( or ( <= ( + X0 35 ) X10 )  ( <= ( + X10 43 ) X0 )  ( <= ( + Y0 59 ) Y10 )  ( <= ( + Y10 19 ) Y0 )  )
( or ( <= ( + X0 35 ) X11 )  ( <= ( + X11 66 ) X0 )  ( <= ( + Y0 59 ) Y11 )  ( <= ( + Y11 45 ) Y0 )  )
( or ( <= ( + X0 35 ) X12 )  ( <= ( + X12 12 ) X0 )  ( <= ( + Y0 59 ) Y12 )  ( <= ( + Y12 66 ) Y0 )  )
( or ( <= ( + X0 35 ) X13 )  ( <= ( + X13 37 ) X0 )  ( <= ( + Y0 59 ) Y13 )  ( <= ( + Y13 74 ) Y0 )  )
( or ( <= ( + X0 35 ) X14 )  ( <= ( + X14 62 ) X0 )  ( <= ( + Y0 59 ) Y14 )  ( <= ( + Y14 10 ) Y0 )  )
( or ( <= ( + X1 58 ) X2 )  ( <= ( + X2 82 ) X1 )  ( <= ( + Y1 17 ) Y2 )  ( <= ( + Y2 57 ) Y1 )  )
( or ( <= ( + X1 58 ) X3 )  ( <= ( + X3 77 ) X1 )  ( <= ( + Y1 17 ) Y3 )  ( <= ( + Y3 90 ) Y1 )  )
( or ( <= ( + X1 58 ) X4 )  ( <= ( + X4 38 ) X1 )  ( <= ( + Y1 17 ) Y4 )  ( <= ( + Y4 52 ) Y1 )  )
( or ( <= ( + X1 58 ) X5 )  ( <= ( + X5 81 ) X1 )  ( <= ( + Y1 17 ) Y5 )  ( <= ( + Y5 67 ) Y1 )  )
( or ( <= ( + X1 58 ) X6 )  ( <= ( + X6 89 ) X1 )  ( <= ( + Y1 17 ) Y6 )  ( <= ( + Y6 44 ) Y1 )  )
( or ( <= ( + X1 58 ) X7 )  ( <= ( + X7 39 ) X1 )  ( <= ( + Y1 17 ) Y7 )  ( <= ( + Y7 74 ) Y1 )  )
( or ( <= ( + X1 58 ) X8 )  ( <= ( + X8 33 ) X1 )  ( <= ( + Y1 17 ) Y8 )  ( <= ( + Y8 23 ) Y1 )  )
( or ( <= ( + X1 58 ) X9 )  ( <= ( + X9 94 ) X1 )  ( <= ( + Y1 17 ) Y9 )  ( <= ( + Y9 52 ) Y1 )  )
( or ( <= ( + X1 58 ) X10 )  ( <= ( + X10 43 ) X1 )  ( <= ( + Y1 17 ) Y10 )  ( <= ( + Y10 19 ) Y1 )  )
( or ( <= ( + X1 58 ) X11 )  ( <= ( + X11 66 ) X1 )  ( <= ( + Y1 17 ) Y11 )  ( <= ( + Y11 45 ) Y1 )  )
( or ( <= ( + X1 58 ) X12 )  ( <= ( + X12 12 ) X1 )  ( <= ( + Y1 17 ) Y12 )  ( <= ( + Y12 66 ) Y1 )  )
( or ( <= ( + X1 58 ) X13 )  ( <= ( + X13 37 ) X1 )  ( <= ( + Y1 17 ) Y13 )  ( <= ( + Y13 74 ) Y1 )  )
( or ( <= ( + X1 58 ) X14 )  ( <= ( + X14 62 ) X1 )  ( <= ( + Y1 17 ) Y14 )  ( <= ( + Y14 10 ) Y1 )  )
( or ( <= ( + X2 82 ) X3 )  ( <= ( + X3 77 ) X2 )  ( <= ( + Y2 57 ) Y3 )  ( <= ( + Y3 90 ) Y2 )  )
( or ( <= ( + X2 82 ) X4 )  ( <= ( + X4 38 ) X2 )  ( <= ( + Y2 57 ) Y4 )  ( <= ( + Y4 52 ) Y2 )  )
( or ( <= ( + X2 82 ) X5 )  ( <= ( + X5 81 ) X2 )  ( <= ( + Y2 57 ) Y5 )  ( <= ( + Y5 67 ) Y2 )  )
( or ( <= ( + X2 82 ) X6 )  ( <= ( + X6 89 ) X2 )  ( <= ( + Y2 57 ) Y6 )  ( <= ( + Y6 44 ) Y2 )  )
( or ( <= ( + X2 82 ) X7 )  ( <= ( + X7 39 ) X2 )  ( <= ( + Y2 57 ) Y7 )  ( <= ( + Y7 74 ) Y2 )  )
( or ( <= ( + X2 82 ) X8 )  ( <= ( + X8 33 ) X2 )  ( <= ( + Y2 57 ) Y8 )  ( <= ( + Y8 23 ) Y2 )  )
( or ( <= ( + X2 82 ) X9 )  ( <= ( + X9 94 ) X2 )  ( <= ( + Y2 57 ) Y9 )  ( <= ( + Y9 52 ) Y2 )  )
( or ( <= ( + X2 82 ) X10 )  ( <= ( + X10 43 ) X2 )  ( <= ( + Y2 57 ) Y10 )  ( <= ( + Y10 19 ) Y2 )  )
( or ( <= ( + X2 82 ) X11 )  ( <= ( + X11 66 ) X2 )  ( <= ( + Y2 57 ) Y11 )  ( <= ( + Y11 45 ) Y2 )  )
( or ( <= ( + X2 82 ) X12 )  ( <= ( + X12 12 ) X2 )  ( <= ( + Y2 57 ) Y12 )  ( <= ( + Y12 66 ) Y2 )  )
( or ( <= ( + X2 82 ) X13 )  ( <= ( + X13 37 ) X2 )  ( <= ( + Y2 57 ) Y13 )  ( <= ( + Y13 74 ) Y2 )  )
( or ( <= ( + X2 82 ) X14 )  ( <= ( + X14 62 ) X2 )  ( <= ( + Y2 57 ) Y14 )  ( <= ( + Y14 10 ) Y2 )  )
( or ( <= ( + X3 77 ) X4 )  ( <= ( + X4 38 ) X3 )  ( <= ( + Y3 90 ) Y4 )  ( <= ( + Y4 52 ) Y3 )  )
( or ( <= ( + X3 77 ) X5 )  ( <= ( + X5 81 ) X3 )  ( <= ( + Y3 90 ) Y5 )  ( <= ( + Y5 67 ) Y3 )  )
( or ( <= ( + X3 77 ) X6 )  ( <= ( + X6 89 ) X3 )  ( <= ( + Y3 90 ) Y6 )  ( <= ( + Y6 44 ) Y3 )  )
( or ( <= ( + X3 77 ) X7 )  ( <= ( + X7 39 ) X3 )  ( <= ( + Y3 90 ) Y7 )  ( <= ( + Y7 74 ) Y3 )  )
( or ( <= ( + X3 77 ) X8 )  ( <= ( + X8 33 ) X3 )  ( <= ( + Y3 90 ) Y8 )  ( <= ( + Y8 23 ) Y3 )  )
( or ( <= ( + X3 77 ) X9 )  ( <= ( + X9 94 ) X3 )  ( <= ( + Y3 90 ) Y9 )  ( <= ( + Y9 52 ) Y3 )  )
( or ( <= ( + X3 77 ) X10 )  ( <= ( + X10 43 ) X3 )  ( <= ( + Y3 90 ) Y10 )  ( <= ( + Y10 19 ) Y3 )  )
( or ( <= ( + X3 77 ) X11 )  ( <= ( + X11 66 ) X3 )  ( <= ( + Y3 90 ) Y11 )  ( <= ( + Y11 45 ) Y3 )  )
( or ( <= ( + X3 77 ) X12 )  ( <= ( + X12 12 ) X3 )  ( <= ( + Y3 90 ) Y12 )  ( <= ( + Y12 66 ) Y3 )  )
( or ( <= ( + X3 77 ) X13 )  ( <= ( + X13 37 ) X3 )  ( <= ( + Y3 90 ) Y13 )  ( <= ( + Y13 74 ) Y3 )  )
( or ( <= ( + X3 77 ) X14 )  ( <= ( + X14 62 ) X3 )  ( <= ( + Y3 90 ) Y14 )  ( <= ( + Y14 10 ) Y3 )  )
( or ( <= ( + X4 38 ) X5 )  ( <= ( + X5 81 ) X4 )  ( <= ( + Y4 52 ) Y5 )  ( <= ( + Y5 67 ) Y4 )  )
( or ( <= ( + X4 38 ) X6 )  ( <= ( + X6 89 ) X4 )  ( <= ( + Y4 52 ) Y6 )  ( <= ( + Y6 44 ) Y4 )  )
( or ( <= ( + X4 38 ) X7 )  ( <= ( + X7 39 ) X4 )  ( <= ( + Y4 52 ) Y7 )  ( <= ( + Y7 74 ) Y4 )  )
( or ( <= ( + X4 38 ) X8 )  ( <= ( + X8 33 ) X4 )  ( <= ( + Y4 52 ) Y8 )  ( <= ( + Y8 23 ) Y4 )  )
( or ( <= ( + X4 38 ) X9 )  ( <= ( + X9 94 ) X4 )  ( <= ( + Y4 52 ) Y9 )  ( <= ( + Y9 52 ) Y4 )  )
( or ( <= ( + X4 38 ) X10 )  ( <= ( + X10 43 ) X4 )  ( <= ( + Y4 52 ) Y10 )  ( <= ( + Y10 19 ) Y4 )  )
( or ( <= ( + X4 38 ) X11 )  ( <= ( + X11 66 ) X4 )  ( <= ( + Y4 52 ) Y11 )  ( <= ( + Y11 45 ) Y4 )  )
( or ( <= ( + X4 38 ) X12 )  ( <= ( + X12 12 ) X4 )  ( <= ( + Y4 52 ) Y12 )  ( <= ( + Y12 66 ) Y4 )  )
( or ( <= ( + X4 38 ) X13 )  ( <= ( + X13 37 ) X4 )  ( <= ( + Y4 52 ) Y13 )  ( <= ( + Y13 74 ) Y4 )  )
( or ( <= ( + X4 38 ) X14 )  ( <= ( + X14 62 ) X4 )  ( <= ( + Y4 52 ) Y14 )  ( <= ( + Y14 10 ) Y4 )  )
( or ( <= ( + X5 81 ) X6 )  ( <= ( + X6 89 ) X5 )  ( <= ( + Y5 67 ) Y6 )  ( <= ( + Y6 44 ) Y5 )  )
( or ( <= ( + X5 81 ) X7 )  ( <= ( + X7 39 ) X5 )  ( <= ( + Y5 67 ) Y7 )  ( <= ( + Y7 74 ) Y5 )  )
( or ( <= ( + X5 81 ) X8 )  ( <= ( + X8 33 ) X5 )  ( <= ( + Y5 67 ) Y8 )  ( <= ( + Y8 23 ) Y5 )  )
( or ( <= ( + X5 81 ) X9 )  ( <= ( + X9 94 ) X5 )  ( <= ( + Y5 67 ) Y9 )  ( <= ( + Y9 52 ) Y5 )  )
( or ( <= ( + X5 81 ) X10 )  ( <= ( + X10 43 ) X5 )  ( <= ( + Y5 67 ) Y10 )  ( <= ( + Y10 19 ) Y5 )  )
( or ( <= ( + X5 81 ) X11 )  ( <= ( + X11 66 ) X5 )  ( <= ( + Y5 67 ) Y11 )  ( <= ( + Y11 45 ) Y5 )  )
( or ( <= ( + X5 81 ) X12 )  ( <= ( + X12 12 ) X5 )  ( <= ( + Y5 67 ) Y12 )  ( <= ( + Y12 66 ) Y5 )  )
( or ( <= ( + X5 81 ) X13 )  ( <= ( + X13 37 ) X5 )  ( <= ( + Y5 67 ) Y13 )  ( <= ( + Y13 74 ) Y5 )  )
( or ( <= ( + X5 81 ) X14 )  ( <= ( + X14 62 ) X5 )  ( <= ( + Y5 67 ) Y14 )  ( <= ( + Y14 10 ) Y5 )  )
( or ( <= ( + X6 89 ) X7 )  ( <= ( + X7 39 ) X6 )  ( <= ( + Y6 44 ) Y7 )  ( <= ( + Y7 74 ) Y6 )  )
( or ( <= ( + X6 89 ) X8 )  ( <= ( + X8 33 ) X6 )  ( <= ( + Y6 44 ) Y8 )  ( <= ( + Y8 23 ) Y6 )  )
( or ( <= ( + X6 89 ) X9 )  ( <= ( + X9 94 ) X6 )  ( <= ( + Y6 44 ) Y9 )  ( <= ( + Y9 52 ) Y6 )  )
( or ( <= ( + X6 89 ) X10 )  ( <= ( + X10 43 ) X6 )  ( <= ( + Y6 44 ) Y10 )  ( <= ( + Y10 19 ) Y6 )  )
( or ( <= ( + X6 89 ) X11 )  ( <= ( + X11 66 ) X6 )  ( <= ( + Y6 44 ) Y11 )  ( <= ( + Y11 45 ) Y6 )  )
( or ( <= ( + X6 89 ) X12 )  ( <= ( + X12 12 ) X6 )  ( <= ( + Y6 44 ) Y12 )  ( <= ( + Y12 66 ) Y6 )  )
( or ( <= ( + X6 89 ) X13 )  ( <= ( + X13 37 ) X6 )  ( <= ( + Y6 44 ) Y13 )  ( <= ( + Y13 74 ) Y6 )  )
( or ( <= ( + X6 89 ) X14 )  ( <= ( + X14 62 ) X6 )  ( <= ( + Y6 44 ) Y14 )  ( <= ( + Y14 10 ) Y6 )  )
( or ( <= ( + X7 39 ) X8 )  ( <= ( + X8 33 ) X7 )  ( <= ( + Y7 74 ) Y8 )  ( <= ( + Y8 23 ) Y7 )  )
( or ( <= ( + X7 39 ) X9 )  ( <= ( + X9 94 ) X7 )  ( <= ( + Y7 74 ) Y9 )  ( <= ( + Y9 52 ) Y7 )  )
( or ( <= ( + X7 39 ) X10 )  ( <= ( + X10 43 ) X7 )  ( <= ( + Y7 74 ) Y10 )  ( <= ( + Y10 19 ) Y7 )  )
( or ( <= ( + X7 39 ) X11 )  ( <= ( + X11 66 ) X7 )  ( <= ( + Y7 74 ) Y11 )  ( <= ( + Y11 45 ) Y7 )  )
( or ( <= ( + X7 39 ) X12 )  ( <= ( + X12 12 ) X7 )  ( <= ( + Y7 74 ) Y12 )  ( <= ( + Y12 66 ) Y7 )  )
( or ( <= ( + X7 39 ) X13 )  ( <= ( + X13 37 ) X7 )  ( <= ( + Y7 74 ) Y13 )  ( <= ( + Y13 74 ) Y7 )  )
( or ( <= ( + X7 39 ) X14 )  ( <= ( + X14 62 ) X7 )  ( <= ( + Y7 74 ) Y14 )  ( <= ( + Y14 10 ) Y7 )  )
( or ( <= ( + X8 33 ) X9 )  ( <= ( + X9 94 ) X8 )  ( <= ( + Y8 23 ) Y9 )  ( <= ( + Y9 52 ) Y8 )  )
( or ( <= ( + X8 33 ) X10 )  ( <= ( + X10 43 ) X8 )  ( <= ( + Y8 23 ) Y10 )  ( <= ( + Y10 19 ) Y8 )  )
( or ( <= ( + X8 33 ) X11 )  ( <= ( + X11 66 ) X8 )  ( <= ( + Y8 23 ) Y11 )  ( <= ( + Y11 45 ) Y8 )  )
( or ( <= ( + X8 33 ) X12 )  ( <= ( + X12 12 ) X8 )  ( <= ( + Y8 23 ) Y12 )  ( <= ( + Y12 66 ) Y8 )  )
( or ( <= ( + X8 33 ) X13 )  ( <= ( + X13 37 ) X8 )  ( <= ( + Y8 23 ) Y13 )  ( <= ( + Y13 74 ) Y8 )  )
( or ( <= ( + X8 33 ) X14 )  ( <= ( + X14 62 ) X8 )  ( <= ( + Y8 23 ) Y14 )  ( <= ( + Y14 10 ) Y8 )  )
( or ( <= ( + X9 94 ) X10 )  ( <= ( + X10 43 ) X9 )  ( <= ( + Y9 52 ) Y10 )  ( <= ( + Y10 19 ) Y9 )  )
( or ( <= ( + X9 94 ) X11 )  ( <= ( + X11 66 ) X9 )  ( <= ( + Y9 52 ) Y11 )  ( <= ( + Y11 45 ) Y9 )  )
( or ( <= ( + X9 94 ) X12 )  ( <= ( + X12 12 ) X9 )  ( <= ( + Y9 52 ) Y12 )  ( <= ( + Y12 66 ) Y9 )  )
( or ( <= ( + X9 94 ) X13 )  ( <= ( + X13 37 ) X9 )  ( <= ( + Y9 52 ) Y13 )  ( <= ( + Y13 74 ) Y9 )  )
( or ( <= ( + X9 94 ) X14 )  ( <= ( + X14 62 ) X9 )  ( <= ( + Y9 52 ) Y14 )  ( <= ( + Y14 10 ) Y9 )  )
( or ( <= ( + X10 43 ) X11 )  ( <= ( + X11 66 ) X10 )  ( <= ( + Y10 19 ) Y11 )  ( <= ( + Y11 45 ) Y10 )  )
( or ( <= ( + X10 43 ) X12 )  ( <= ( + X12 12 ) X10 )  ( <= ( + Y10 19 ) Y12 )  ( <= ( + Y12 66 ) Y10 )  )
( or ( <= ( + X10 43 ) X13 )  ( <= ( + X13 37 ) X10 )  ( <= ( + Y10 19 ) Y13 )  ( <= ( + Y13 74 ) Y10 )  )
( or ( <= ( + X10 43 ) X14 )  ( <= ( + X14 62 ) X10 )  ( <= ( + Y10 19 ) Y14 )  ( <= ( + Y14 10 ) Y10 )  )
( or ( <= ( + X11 66 ) X12 )  ( <= ( + X12 12 ) X11 )  ( <= ( + Y11 45 ) Y12 )  ( <= ( + Y12 66 ) Y11 )  )
( or ( <= ( + X11 66 ) X13 )  ( <= ( + X13 37 ) X11 )  ( <= ( + Y11 45 ) Y13 )  ( <= ( + Y13 74 ) Y11 )  )
( or ( <= ( + X11 66 ) X14 )  ( <= ( + X14 62 ) X11 )  ( <= ( + Y11 45 ) Y14 )  ( <= ( + Y14 10 ) Y11 )  )
( or ( <= ( + X12 12 ) X13 )  ( <= ( + X13 37 ) X12 )  ( <= ( + Y12 66 ) Y13 )  ( <= ( + Y13 74 ) Y12 )  )
( or ( <= ( + X12 12 ) X14 )  ( <= ( + X14 62 ) X12 )  ( <= ( + Y12 66 ) Y14 )  ( <= ( + Y14 10 ) Y12 )  )
( or ( <= ( + X13 37 ) X14 )  ( <= ( + X14 62 ) X13 )  ( <= ( + Y13 74 ) Y14 )  ( <= ( + Y14 10 ) Y13 )  )
( >= X0 0)
( <= ( + X0 35) Z)
( >= Y0 0)
( <= ( + Y0 59 ) 193)
( >= X1 0)
( <= ( + X1 58) Z)
( >= Y1 0)
( <= ( + Y1 17 ) 193)
( >= X2 0)
( <= ( + X2 82) Z)
( >= Y2 0)
( <= ( + Y2 57 ) 193)
( >= X3 0)
( <= ( + X3 77) Z)
( >= Y3 0)
( <= ( + Y3 90 ) 193)
( >= X4 0)
( <= ( + X4 38) Z)
( >= Y4 0)
( <= ( + Y4 52 ) 193)
( >= X5 0)
( <= ( + X5 81) Z)
( >= Y5 0)
( <= ( + Y5 67 ) 193)
( >= X6 0)
( <= ( + X6 89) Z)
( >= Y6 0)
( <= ( + Y6 44 ) 193)
( >= X7 0)
( <= ( + X7 39) Z)
( >= Y7 0)
( <= ( + Y7 74 ) 193)
( >= X8 0)
( <= ( + X8 33) Z)
( >= Y8 0)
( <= ( + Y8 23 ) 193)
( >= X9 0)
( <= ( + X9 94) Z)
( >= Y9 0)
( <= ( + Y9 52 ) 193)
( >= X10 0)
( <= ( + X10 43) Z)
( >= Y10 0)
( <= ( + Y10 19 ) 193)
( >= X11 0)
( <= ( + X11 66) Z)
( >= Y11 0)
( <= ( + Y11 45 ) 193)
( >= X12 0)
( <= ( + X12 12) Z)
( >= Y12 0)
( <= ( + Y12 66 ) 193)
( >= X13 0)
( <= ( + X13 37) Z)
( >= Y13 0)
( <= ( + Y13 74 ) 193)
( >= X14 0)
( <= ( + X14 62) Z)
( >= Y14 0)
( <= ( + Y14 10 ) 193)
) )
(minimize Z)
(check-sat)
